clingo version 5.4.1
Reading from provaASP21.lp
Solving...
Answer: 1
assign(1,8,6) assign(2,53,6) assign(3,60,9) assign(4,12,6) assign(5,12,6) assign(6,17,14) assign(7,47,2) assign(8,74,5) assign(9,17,14) assign(10,53,6) assign(11,70,9) assign(12,16,9) assign(13,41,20) assign(14,75,16) assign(15,75,16) assign(16,12,6) assign(17,41,20) assign(18,71,9) assign(19,8,6) assign(20,32,2) assign(21,32,2) assign(22,16,9) assign(23,71,9) assign(24,75,16) assign(25,41,20) assign(26,41,20) assign(27,8,6) assign(28,57,12) assign(29,70,9) assign(30,53,6) assign(31,53,6) assign(32,57,12) assign(33,16,9) assign(34,70,9) assign(35,12,6) assign(36,71,9) assign(37,47,2) assign(38,71,9) assign(39,32,2) assign(40,16,9) assign(41,57,12) assign(42,38,6) assign(43,70,9) assign(44,17,14) assign(45,60,9) assign(46,57,12) assign(47,17,14) assign(48,8,6) assign(49,32,2) assign(50,75,16) count_seats_occupied(1,7,0) count_seats_occupied(1,13,0) count_seats_occupied(1,14,0) count_seats_occupied(1,15,0) count_seats_occupied(2,32,4) count_seats_occupied(2,40,0) count_seats_occupied(2,46,0) count_seats_occupied(2,47,2) count_seats_occupied(3,50,0) count_seats_occupied(3,58,0) count_seats_occupied(3,59,0) count_seats_occupied(3,61,0) count_seats_occupied(4,2,0) count_seats_occupied(4,3,0) count_seats_occupied(4,4,0) count_seats_occupied(4,5,0) count_seats_occupied(5,72,0) count_seats_occupied(5,73,0) count_seats_occupied(5,74,1) count_seats_occupied(5,76,0) count_seats_occupied(6,8,4) count_seats_occupied(6,12,4) count_seats_occupied(6,38,1) count_seats_occupied(6,53,4) count_seats_occupied(7,28,0) count_seats_occupied(7,29,0) count_seats_occupied(7,30,0) count_seats_occupied(7,31,0) count_seats_occupied(8,77,0) count_seats_occupied(8,78,0) count_seats_occupied(8,79,0) count_seats_occupied(8,80,0) count_seats_occupied(9,16,4) count_seats_occupied(9,60,2) count_seats_occupied(9,70,4) count_seats_occupied(9,71,4) count_seats_occupied(10,66,0) count_seats_occupied(10,67,0) count_seats_occupied(10,68,0) count_seats_occupied(10,69,0) count_seats_occupied(11,62,0) count_seats_occupied(11,63,0) count_seats_occupied(11,64,0) count_seats_occupied(11,65,0) count_seats_occupied(12,54,0) count_seats_occupied(12,55,0) count_seats_occupied(12,56,0) count_seats_occupied(12,57,4) count_seats_occupied(13,6,0) count_seats_occupied(13,9,0) count_seats_occupied(13,10,0) count_seats_occupied(13,11,0) count_seats_occupied(14,17,4) count_seats_occupied(14,48,0) count_seats_occupied(14,51,0) count_seats_occupied(14,52,0) count_seats_occupied(15,33,0) count_seats_occupied(15,44,0) count_seats_occupied(15,45,0) count_seats_occupied(15,49,0) count_seats_occupied(16,19,0) count_seats_occupied(16,39,0) count_seats_occupied(16,43,0) count_seats_occupied(16,75,4) count_seats_occupied(17,1,0) count_seats_occupied(17,36,0) count_seats_occupied(17,37,0) count_seats_occupied(17,42,0) count_seats_occupied(18,26,0) count_seats_occupied(18,27,0) count_seats_occupied(18,34,0) count_seats_occupied(18,35,0) count_seats_occupied(19,22,0) count_seats_occupied(19,23,0) count_seats_occupied(19,24,0) count_seats_occupied(19,25,0) count_seats_occupied(20,18,0) count_seats_occupied(20,20,0) count_seats_occupied(20,21,0) count_seats_occupied(20,41,4)
Optimization: 8
Answer: 2
assign(1,8,6) assign(2,53,6) assign(3,60,9) assign(4,12,6) assign(5,12,6) assign(6,17,14) assign(7,47,2) assign(8,16,9) assign(9,17,14) assign(10,53,6) assign(11,70,9) assign(12,16,9) assign(13,41,20) assign(14,75,16) assign(15,75,16) assign(16,12,6) assign(17,41,20) assign(18,71,9) assign(19,8,6) assign(20,32,2) assign(21,32,2) assign(22,71,9) assign(23,71,9) assign(24,75,16) assign(25,41,20) assign(26,41,20) assign(27,8,6) assign(28,57,12) assign(29,70,9) assign(30,53,6) assign(31,53,6) assign(32,57,12) assign(33,16,9) assign(34,70,9) assign(35,12,6) assign(36,71,9) assign(37,47,2) assign(38,60,9) assign(39,32,2) assign(40,16,9) assign(41,57,12) assign(42,38,6) assign(43,70,9) assign(44,17,14) assign(45,60,9) assign(46,57,12) assign(47,17,14) assign(48,8,6) assign(49,32,2) assign(50,75,16) count_seats_occupied(1,7,0) count_seats_occupied(1,13,0) count_seats_occupied(1,14,0) count_seats_occupied(1,15,0) count_seats_occupied(2,32,4) count_seats_occupied(2,40,0) count_seats_occupied(2,46,0) count_seats_occupied(2,47,2) count_seats_occupied(3,50,0) count_seats_occupied(3,58,0) count_seats_occupied(3,59,0) count_seats_occupied(3,61,0) count_seats_occupied(4,2,0) count_seats_occupied(4,3,0) count_seats_occupied(4,4,0) count_seats_occupied(4,5,0) count_seats_occupied(5,72,0) count_seats_occupied(5,73,0) count_seats_occupied(5,74,0) count_seats_occupied(5,76,0) count_seats_occupied(6,8,4) count_seats_occupied(6,12,4) count_seats_occupied(6,38,1) count_seats_occupied(6,53,4) count_seats_occupied(7,28,0) count_seats_occupied(7,29,0) count_seats_occupied(7,30,0) count_seats_occupied(7,31,0) count_seats_occupied(8,77,0) count_seats_occupied(8,78,0) count_seats_occupied(8,79,0) count_seats_occupied(8,80,0) count_seats_occupied(9,16,4) count_seats_occupied(9,60,3) count_seats_occupied(9,70,4) count_seats_occupied(9,71,4) count_seats_occupied(10,66,0) count_seats_occupied(10,67,0) count_seats_occupied(10,68,0) count_seats_occupied(10,69,0) count_seats_occupied(11,62,0) count_seats_occupied(11,63,0) count_seats_occupied(11,64,0) count_seats_occupied(11,65,0) count_seats_occupied(12,54,0) count_seats_occupied(12,55,0) count_seats_occupied(12,56,0) count_seats_occupied(12,57,4) count_seats_occupied(13,6,0) count_seats_occupied(13,9,0) count_seats_occupied(13,10,0) count_seats_occupied(13,11,0) count_seats_occupied(14,17,4) count_seats_occupied(14,48,0) count_seats_occupied(14,51,0) count_seats_occupied(14,52,0) count_seats_occupied(15,33,0) count_seats_occupied(15,44,0) count_seats_occupied(15,45,0) count_seats_occupied(15,49,0) count_seats_occupied(16,19,0) count_seats_occupied(16,39,0) count_seats_occupied(16,43,0) count_seats_occupied(16,75,4) count_seats_occupied(17,1,0) count_seats_occupied(17,36,0) count_seats_occupied(17,37,0) count_seats_occupied(17,42,0) count_seats_occupied(18,26,0) count_seats_occupied(18,27,0) count_seats_occupied(18,34,0) count_seats_occupied(18,35,0) count_seats_occupied(19,22,0) count_seats_occupied(19,23,0) count_seats_occupied(19,24,0) count_seats_occupied(19,25,0) count_seats_occupied(20,18,0) count_seats_occupied(20,20,0) count_seats_occupied(20,21,0) count_seats_occupied(20,41,4)
Optimization: 7
Answer: 3
assign(1,8,6) assign(2,53,6) assign(3,60,9) assign(4,12,6) assign(5,12,6) assign(6,38,6) assign(7,47,2) assign(8,40,2) assign(9,16,9) assign(10,53,6) assign(11,70,9) assign(12,16,9) assign(13,41,20) assign(14,75,16) assign(15,75,16) assign(16,12,6) assign(17,41,20) assign(18,71,9) assign(19,8,6) assign(20,32,2) assign(21,32,2) assign(22,71,9) assign(23,71,9) assign(24,75,16) assign(25,41,20) assign(26,41,20) assign(27,8,6) assign(28,57,12) assign(29,70,9) assign(30,53,6) assign(31,53,6) assign(32,57,12) assign(33,16,9) assign(34,70,9) assign(35,12,6) assign(36,71,9) assign(37,47,2) assign(38,60,9) assign(39,32,2) assign(40,16,9) assign(41,57,12) assign(42,38,6) assign(43,70,9) assign(44,45,16) assign(45,60,9) assign(46,57,12) assign(47,56,12) assign(48,8,6) assign(49,32,2) assign(50,75,16) count_seats_occupied(1,7,0) count_seats_occupied(1,13,0) count_seats_occupied(1,14,0) count_seats_occupied(1,15,0) count_seats_occupied(2,32,4) count_seats_occupied(2,40,1) count_seats_occupied(2,46,0) count_seats_occupied(2,47,2) count_seats_occupied(3,50,0) count_seats_occupied(3,58,0) count_seats_occupied(3,59,0) count_seats_occupied(3,61,0) count_seats_occupied(4,2,0) count_seats_occupied(4,3,0) count_seats_occupied(4,4,0) count_seats_occupied(4,5,0) count_seats_occupied(5,72,0) count_seats_occupied(5,73,0) count_seats_occupied(5,74,0) count_seats_occupied(5,76,0) count_seats_occupied(6,8,4) count_seats_occupied(6,12,4) count_seats_occupied(6,38,2) count_seats_occupied(6,53,4) count_seats_occupied(7,28,0) count_seats_occupied(7,29,0) count_seats_occupied(7,30,0) count_seats_occupied(7,31,0) count_seats_occupied(8,77,0) count_seats_occupied(8,78,0) count_seats_occupied(8,79,0) count_seats_occupied(8,80,0) count_seats_occupied(9,16,4) count_seats_occupied(9,60,3) count_seats_occupied(9,70,4) count_seats_occupied(9,71,4) count_seats_occupied(10,66,0) count_seats_occupied(10,67,0) count_seats_occupied(10,68,0) count_seats_occupied(10,69,0) count_seats_occupied(11,62,0) count_seats_occupied(11,63,0) count_seats_occupied(11,64,0) count_seats_occupied(11,65,0) count_seats_occupied(12,54,0) count_seats_occupied(12,55,0) count_seats_occupied(12,56,1) count_seats_occupied(12,57,4) count_seats_occupied(13,6,0) count_seats_occupied(13,9,0) count_seats_occupied(13,10,0) count_seats_occupied(13,11,0) count_seats_occupied(14,17,0) count_seats_occupied(14,48,0) count_seats_occupied(14,51,0) count_seats_occupied(14,52,0) count_seats_occupied(15,19,0) count_seats_occupied(15,33,0) count_seats_occupied(15,44,0) count_seats_occupied(15,49,0) count_seats_occupied(16,39,0) count_seats_occupied(16,43,0) count_seats_occupied(16,45,1) count_seats_occupied(16,75,4) count_seats_occupied(17,1,0) count_seats_occupied(17,36,0) count_seats_occupied(17,37,0) count_seats_occupied(17,42,0) count_seats_occupied(18,26,0) count_seats_occupied(18,27,0) count_seats_occupied(18,34,0) count_seats_occupied(18,35,0) count_seats_occupied(19,22,0) count_seats_occupied(19,23,0) count_seats_occupied(19,24,0) count_seats_occupied(19,25,0) count_seats_occupied(20,18,0) count_seats_occupied(20,20,0) count_seats_occupied(20,21,0) count_seats_occupied(20,41,4)
Optimization: 6
Answer: 4
assign(1,40,2) assign(2,39,16) assign(3,60,9) assign(4,40,2) assign(5,21,20) assign(6,71,9) assign(7,47,2) assign(8,54,12) assign(9,16,9) assign(10,60,9) assign(11,70,9) assign(12,16,9) assign(13,41,20) assign(14,75,16) assign(15,75,16) assign(16,50,16) assign(17,41,20) assign(18,71,9) assign(19,40,2) assign(20,32,2) assign(21,32,2) assign(22,60,9) assign(23,71,9) assign(24,75,16) assign(25,41,20) assign(26,41,20) assign(27,40,2) assign(28,57,12) assign(29,70,9) assign(30,45,12) assign(31,45,12) assign(32,57,12) assign(33,16,9) assign(34,70,9) assign(35,21,20) assign(36,71,9) assign(37,47,2) assign(38,50,16) assign(39,32,2) assign(40,16,9) assign(41,57,12) assign(42,45,12) assign(43,70,9) assign(44,50,16) assign(45,60,9) assign(46,57,12) assign(47,56,12) assign(48,18,20) assign(49,32,2) assign(50,75,16) count_seats_occupied(1,7,0) count_seats_occupied(1,13,0) count_seats_occupied(1,14,0) count_seats_occupied(1,15,0) count_seats_occupied(2,32,4) count_seats_occupied(2,40,4) count_seats_occupied(2,46,0) count_seats_occupied(2,47,2) count_seats_occupied(3,42,0) count_seats_occupied(3,58,0) count_seats_occupied(3,59,0) count_seats_occupied(3,61,0) count_seats_occupied(4,2,0) count_seats_occupied(4,3,0) count_seats_occupied(4,4,0) count_seats_occupied(4,5,0) count_seats_occupied(5,72,0) count_seats_occupied(5,73,0) count_seats_occupied(5,74,0) count_seats_occupied(5,76,0) count_seats_occupied(6,8,0) count_seats_occupied(6,12,0) count_seats_occupied(6,38,0) count_seats_occupied(6,53,0) count_seats_occupied(7,28,0) count_seats_occupied(7,29,0) count_seats_occupied(7,30,0) count_seats_occupied(7,31,0) count_seats_occupied(8,77,0) count_seats_occupied(8,78,0) count_seats_occupied(8,79,0) count_seats_occupied(8,80,0) count_seats_occupied(9,16,4) count_seats_occupied(9,60,4) count_seats_occupied(9,70,4) count_seats_occupied(9,71,4) count_seats_occupied(10,66,0) count_seats_occupied(10,67,0) count_seats_occupied(10,68,0) count_seats_occupied(10,69,0) count_seats_occupied(11,62,0) count_seats_occupied(11,63,0) count_seats_occupied(11,64,0) count_seats_occupied(11,65,0) count_seats_occupied(12,45,3) count_seats_occupied(12,54,1) count_seats_occupied(12,56,1) count_seats_occupied(12,57,4) count_seats_occupied(13,6,0) count_seats_occupied(13,9,0) count_seats_occupied(13,10,0) count_seats_occupied(13,11,0) count_seats_occupied(14,17,0) count_seats_occupied(14,48,0) count_seats_occupied(14,51,0) count_seats_occupied(14,52,0) count_seats_occupied(15,19,0) count_seats_occupied(15,33,0) count_seats_occupied(15,44,0) count_seats_occupied(15,49,0) count_seats_occupied(16,39,1) count_seats_occupied(16,43,0) count_seats_occupied(16,50,3) count_seats_occupied(16,75,4) count_seats_occupied(17,1,0) count_seats_occupied(17,36,0) count_seats_occupied(17,37,0) count_seats_occupied(17,55,0) count_seats_occupied(18,26,0) count_seats_occupied(18,27,0) count_seats_occupied(18,34,0) count_seats_occupied(18,35,0) count_seats_occupied(19,22,0) count_seats_occupied(19,23,0) count_seats_occupied(19,24,0) count_seats_occupied(19,25,0) count_seats_occupied(20,18,1) count_seats_occupied(20,20,0) count_seats_occupied(20,21,2) count_seats_occupied(20,41,4)
Optimization: 5
Answer: 5
assign(1,43,16) assign(2,39,16) assign(3,60,9) assign(4,21,20) assign(5,21,20) assign(6,21,20) assign(7,20,20) assign(8,16,9) assign(9,20,20) assign(10,66,16) assign(11,70,9) assign(12,18,20) assign(13,41,20) assign(14,5,4) assign(15,66,16) assign(16,39,16) assign(17,41,20) assign(18,71,9) assign(19,43,16) assign(20,70,9) assign(21,70,9) assign(22,71,9) assign(23,71,9) assign(24,66,16) assign(25,41,20) assign(26,41,20) assign(27,43,16) assign(28,79,16) assign(29,60,9) assign(30,39,16) assign(31,39,16) assign(32,16,9) assign(33,18,20) assign(34,60,9) assign(35,21,20) assign(36,71,9) assign(37,20,20) assign(38,43,16) assign(39,70,9) assign(40,18,20) assign(41,79,16) assign(42,18,20) assign(43,20,20) assign(44,66,16) assign(45,60,9) assign(46,16,9) assign(47,79,16) assign(48,79,16) assign(49,16,9) assign(50,5,4) count_seats_occupied(1,7,0) count_seats_occupied(1,14,0) count_seats_occupied(1,40,0) count_seats_occupied(1,75,0) count_seats_occupied(2,15,0) count_seats_occupied(2,32,0) count_seats_occupied(2,46,0) count_seats_occupied(2,47,0) count_seats_occupied(3,42,0) count_seats_occupied(3,58,0) count_seats_occupied(3,59,0) count_seats_occupied(3,61,0) count_seats_occupied(4,2,0) count_seats_occupied(4,3,0) count_seats_occupied(4,4,0) count_seats_occupied(4,5,2) count_seats_occupied(5,72,0) count_seats_occupied(5,73,0) count_seats_occupied(5,74,0) count_seats_occupied(5,76,0) count_seats_occupied(6,8,0) count_seats_occupied(6,12,0) count_seats_occupied(6,38,0) count_seats_occupied(6,53,0) count_seats_occupied(7,28,0) count_seats_occupied(7,29,0) count_seats_occupied(7,30,0) count_seats_occupied(7,31,0) count_seats_occupied(8,55,0) count_seats_occupied(8,77,0) count_seats_occupied(8,78,0) count_seats_occupied(8,80,0) count_seats_occupied(9,16,4) count_seats_occupied(9,60,4) count_seats_occupied(9,70,4) count_seats_occupied(9,71,4) count_seats_occupied(10,64,0) count_seats_occupied(10,67,0) count_seats_occupied(10,68,0) count_seats_occupied(10,69,0) count_seats_occupied(11,13,0) count_seats_occupied(11,62,0) count_seats_occupied(11,63,0) count_seats_occupied(11,65,0) count_seats_occupied(12,45,0) count_seats_occupied(12,54,0) count_seats_occupied(12,56,0) count_seats_occupied(12,57,0) count_seats_occupied(13,6,0) count_seats_occupied(13,9,0) count_seats_occupied(13,10,0) count_seats_occupied(13,11,0) count_seats_occupied(14,17,0) count_seats_occupied(14,48,0) count_seats_occupied(14,51,0) count_seats_occupied(14,52,0) count_seats_occupied(15,19,0) count_seats_occupied(15,33,0) count_seats_occupied(15,44,0) count_seats_occupied(15,49,0) count_seats_occupied(16,39,4) count_seats_occupied(16,43,4) count_seats_occupied(16,66,4) count_seats_occupied(16,79,4) count_seats_occupied(17,1,0) count_seats_occupied(17,36,0) count_seats_occupied(17,37,0) count_seats_occupied(17,50,0) count_seats_occupied(18,26,0) count_seats_occupied(18,27,0) count_seats_occupied(18,34,0) count_seats_occupied(18,35,0) count_seats_occupied(19,22,0) count_seats_occupied(19,23,0) count_seats_occupied(19,24,0) count_seats_occupied(19,25,0) count_seats_occupied(20,18,4) count_seats_occupied(20,20,4) count_seats_occupied(20,21,4) count_seats_occupied(20,41,4)
Optimization: 4
SATISFIABLE

TIME LIMIT   : 1
Models       : 5+
  Optimum    : unknown
Optimization : 4
Calls        : 1
Time         : 300.008s (Solving: 180.09s 1st Model: 67.21s Unsat: 0.00s)
CPU Time     : 276.838s
